100
128
30
57
4
41
6
46
61
60
14
18
28
58
29
50
8
30
51
12
59
50
11
59
64
13
33
52
9
39
1
8
41
16
48
49
9
38
33
26
60
35
19
40
42
46
10
12
24
8
6
23
8
24
3
27
27
12
42
11
10
11
10
60
17
11
59
29
12
1
27
18
24
26
48
58
11
22
23
13
36
34
2
28
29
50
34
41
53
39
12
39
2
44
46
59
63
38
36
63
35
23